<instance format="XCSP3" type="COP">
  <variables>
    <var id="x" note="x is the number of unused bins"> 0..24 </var>
    <array id="b" note="b[i][j] indicates the weight of the jth object put in the ith bin. It is 0 if there is no object at this place." size="[24][3]"> 0 251 252 254 255 258 259 261..263 268 269 271..275 283 287 288 292 298 299 303 307 315 320 347 350 351 355 357 361 363 366 370 372 395 410 414 419 430 439 444 445 450 466 472..474 495 </array>
  </variables>
  <constraints>
    <group>
      <mdd>
        <list> %... </list>
        <transitions> (root,0,n3)(root,251,n3)(root,252,n5)(root,254,n5)(root,255,n7)(root,258,n8)(root,259,n10)(root,261,n12)(root,262,n14)(root,263,n16)(root,268,n18)(root,269,n20)(root,271,n23)(root,272,n25)(root,273,n27)(root,274,n29)(root,275,n31)(root,283,n33)(root,287,n35)(root,288,n36)(root,292,n38)(root,298,n40)(root,299,n43)(root,303,n45)(root,307,n46)(root,315,n48)(root,320,n50)(root,347,n52)(root,350,n54)(root,351,n55)(root,355,n56)(root,357,n57)(root,361,n58)(root,363,n59)(root,366,n60)(root,370,n61)(root,372,n62)(root,395,n63)(root,410,n64)(root,414,n65)(root,419,n66)(root,430,n67)(root,439,n68)(root,444,n69)(root,445,n70)(root,450,n71)(root,466,n73)(root,472,n74)(root,473,n75)(root,474,n76)(root,495,n77)(n3,0,n4)(n4,0,nodeT)(n5,0,n4)(n5,251,n4)(n5,252,n6)(n6,0,nodeT)(n6,251,nodeT)(n6,252,nodeT)(n7,0,n4)(n7,251,n4)(n7,252,n6)(n7,254,n6)(n8,0,n4)(n8,251,n4)(n8,252,n6)(n8,254,n6)(n8,255,n9)(n9,0,nodeT)(n9,251,nodeT)(n9,252,nodeT)(n9,254,nodeT)(n10,0,n4)(n10,251,n4)(n10,252,n6)(n10,254,n6)(n10,255,n9)(n10,258,n11)(n11,0,nodeT)(n11,251,nodeT)(n11,252,nodeT)(n11,254,nodeT)(n11,255,nodeT)(n12,0,n4)(n12,251,n4)(n12,252,n6)(n12,254,n6)(n12,255,n9)(n12,258,n11)(n12,259,n13)(n13,0,nodeT)(n13,251,nodeT)(n13,252,nodeT)(n13,254,nodeT)(n13,255,nodeT)(n13,258,nodeT)(n14,0,n4)(n14,251,n4)(n14,252,n6)(n14,254,n6)(n14,255,n9)(n14,258,n11)(n14,259,n13)(n14,261,n15)(n15,0,nodeT)(n15,251,nodeT)(n15,252,nodeT)(n15,254,nodeT)(n15,255,nodeT)(n15,258,nodeT)(n15,259,nodeT)(n16,0,n4)(n16,251,n4)(n16,252,n6)(n16,254,n6)(n16,255,n9)(n16,258,n11)(n16,259,n13)(n16,261,n15)(n16,262,n17)(n17,0,nodeT)(n17,251,nodeT)(n17,252,nodeT)(n17,254,nodeT)(n17,255,nodeT)(n17,258,nodeT)(n17,259,nodeT)(n17,261,nodeT)(n18,0,n4)(n18,251,n4)(n18,252,n6)(n18,254,n6)(n18,255,n9)(n18,258,n11)(n18,259,n13)(n18,261,n15)(n18,262,n17)(n18,263,n19)(n19,0,nodeT)(n19,251,nodeT)(n19,252,nodeT)(n19,254,nodeT)(n19,255,nodeT)(n19,258,nodeT)(n19,259,nodeT)(n19,261,nodeT)(n19,262,nodeT)(n20,0,n4)(n20,251,n4)(n20,252,n6)(n20,254,n6)(n20,255,n9)(n20,258,n11)(n20,259,n13)(n20,261,n15)(n20,262,n17)(n20,263,n19)(n20,268,n21)(n20,269,n22)(n21,0,nodeT)(n21,251,nodeT)(n21,252,nodeT)(n21,254,nodeT)(n21,255,nodeT)(n21,258,nodeT)(n21,259,nodeT)(n21,261,nodeT)(n21,262,nodeT)(n21,263,nodeT)(n22,0,nodeT)(n22,251,nodeT)(n22,252,nodeT)(n22,254,nodeT)(n22,255,nodeT)(n22,258,nodeT)(n22,259,nodeT)(n22,261,nodeT)(n22,262,nodeT)(n22,263,nodeT)(n22,268,nodeT)(n23,0,n4)(n23,251,n4)(n23,252,n6)(n23,254,n6)(n23,255,n9)(n23,258,n11)(n23,259,n13)(n23,261,n15)(n23,262,n17)(n23,263,n19)(n23,268,n21)(n23,269,n24)(n24,0,nodeT)(n24,251,nodeT)(n24,252,nodeT)(n24,254,nodeT)(n24,255,nodeT)(n24,258,nodeT)(n24,259,nodeT)(n24,261,nodeT)(n24,262,nodeT)(n24,263,nodeT)(n24,268,nodeT)(n24,269,nodeT)(n25,0,n4)(n25,251,n4)(n25,252,n6)(n25,254,n6)(n25,255,n9)(n25,258,n11)(n25,259,n13)(n25,261,n15)(n25,262,n17)(n25,263,n19)(n25,268,n21)(n25,269,n24)(n25,271,n24)(n25,272,n26)(n26,0,nodeT)(n26,251,nodeT)(n26,252,nodeT)(n26,254,nodeT)(n26,255,nodeT)(n26,258,nodeT)(n26,259,nodeT)(n26,261,nodeT)(n26,262,nodeT)(n26,263,nodeT)(n26,268,nodeT)(n26,269,nodeT)(n26,271,nodeT)(n27,0,n4)(n27,251,n4)(n27,252,n6)(n27,254,n6)(n27,255,n9)(n27,258,n11)(n27,259,n13)(n27,261,n15)(n27,262,n17)(n27,263,n19)(n27,268,n21)(n27,269,n24)(n27,271,n24)(n27,272,n28)(n27,273,n28)(n28,0,nodeT)(n28,251,nodeT)(n28,252,nodeT)(n28,254,nodeT)(n28,255,nodeT)(n28,258,nodeT)(n28,259,nodeT)(n28,261,nodeT)(n28,262,nodeT)(n28,263,nodeT)(n28,268,nodeT)(n28,269,nodeT)(n28,271,nodeT)(n28,272,nodeT)(n29,0,n4)(n29,251,n4)(n29,252,n6)(n29,254,n6)(n29,255,n9)(n29,258,n11)(n29,259,n13)(n29,261,n15)(n29,262,n17)(n29,263,n19)(n29,268,n21)(n29,269,n24)(n29,271,n24)(n29,272,n28)(n29,273,n30)(n30,0,nodeT)(n30,251,nodeT)(n30,252,nodeT)(n30,254,nodeT)(n30,255,nodeT)(n30,258,nodeT)(n30,259,nodeT)(n30,261,nodeT)(n30,262,nodeT)(n30,263,nodeT)(n30,268,nodeT)(n30,269,nodeT)(n30,271,nodeT)(n30,272,nodeT)(n30,273,nodeT)(n31,0,n4)(n31,251,n4)(n31,252,n6)(n31,254,n6)(n31,255,n9)(n31,258,n11)(n31,259,n13)(n31,261,n15)(n31,262,n17)(n31,263,n19)(n31,268,n21)(n31,269,n24)(n31,271,n24)(n31,272,n28)(n31,273,n30)(n31,274,n30)(n31,275,n32)(n32,0,nodeT)(n32,251,nodeT)(n32,252,nodeT)(n32,254,nodeT)(n32,255,nodeT)(n32,258,nodeT)(n32,259,nodeT)(n32,261,nodeT)(n32,262,nodeT)(n32,263,nodeT)(n32,268,nodeT)(n32,269,nodeT)(n32,271,nodeT)(n32,272,nodeT)(n32,273,nodeT)(n32,274,nodeT)(n33,0,n4)(n33,251,n4)(n33,252,n6)(n33,254,n6)(n33,255,n9)(n33,258,n11)(n33,259,n13)(n33,261,n15)(n33,262,n17)(n33,263,n19)(n33,268,n21)(n33,269,n24)(n33,271,n24)(n33,272,n28)(n33,273,n30)(n33,274,n30)(n33,275,n34)(n34,0,nodeT)(n34,251,nodeT)(n34,252,nodeT)(n34,254,nodeT)(n34,255,nodeT)(n34,258,nodeT)(n34,259,nodeT)(n34,261,nodeT)(n34,262,nodeT)(n34,263,nodeT)(n34,268,nodeT)(n34,269,nodeT)(n34,271,nodeT)(n34,272,nodeT)(n34,273,nodeT)(n34,274,nodeT)(n34,275,nodeT)(n35,0,n4)(n35,251,n4)(n35,252,n6)(n35,254,n6)(n35,255,n9)(n35,258,n11)(n35,259,n13)(n35,261,n15)(n35,262,n17)(n35,263,n19)(n35,268,n21)(n35,269,n24)(n35,271,n24)(n35,272,n28)(n35,273,n30)(n35,274,n30)(n35,275,n34)(n35,283,n34)(n36,0,n4)(n36,251,n4)(n36,252,n6)(n36,254,n6)(n36,255,n9)(n36,258,n11)(n36,259,n13)(n36,261,n15)(n36,262,n17)(n36,263,n19)(n36,268,n21)(n36,269,n24)(n36,271,n24)(n36,272,n28)(n36,273,n30)(n36,274,n30)(n36,275,n34)(n36,283,n34)(n36,287,n37)(n37,0,nodeT)(n37,251,nodeT)(n37,252,nodeT)(n37,254,nodeT)(n37,255,nodeT)(n37,258,nodeT)(n37,259,nodeT)(n37,261,nodeT)(n37,262,nodeT)(n37,263,nodeT)(n37,268,nodeT)(n37,269,nodeT)(n37,271,nodeT)(n37,272,nodeT)(n37,273,nodeT)(n37,274,nodeT)(n37,275,nodeT)(n37,283,nodeT)(n38,0,n4)(n38,251,n4)(n38,252,n6)(n38,254,n6)(n38,255,n9)(n38,258,n11)(n38,259,n13)(n38,261,n15)(n38,262,n17)(n38,263,n19)(n38,268,n21)(n38,269,n24)(n38,271,n24)(n38,272,n28)(n38,273,n30)(n38,274,n30)(n38,275,n34)(n38,283,n34)(n38,287,n37)(n38,288,n39)(n39,0,nodeT)(n39,251,nodeT)(n39,252,nodeT)(n39,254,nodeT)(n39,255,nodeT)(n39,258,nodeT)(n39,259,nodeT)(n39,261,nodeT)(n39,262,nodeT)(n39,263,nodeT)(n39,268,nodeT)(n39,269,nodeT)(n39,271,nodeT)(n39,272,nodeT)(n39,273,nodeT)(n39,274,nodeT)(n39,275,nodeT)(n39,283,nodeT)(n39,287,nodeT)(n40,0,n4)(n40,251,n4)(n40,252,n6)(n40,254,n6)(n40,255,n9)(n40,258,n11)(n40,259,n13)(n40,261,n15)(n40,262,n17)(n40,263,n19)(n40,268,n21)(n40,269,n24)(n40,271,n24)(n40,272,n28)(n40,273,n30)(n40,274,n30)(n40,275,n34)(n40,283,n34)(n40,287,n37)(n40,288,n39)(n40,292,n41)(n40,298,n42)(n41,0,nodeT)(n41,251,nodeT)(n41,252,nodeT)(n41,254,nodeT)(n41,255,nodeT)(n41,258,nodeT)(n41,259,nodeT)(n41,261,nodeT)(n41,262,nodeT)(n41,263,nodeT)(n41,268,nodeT)(n41,269,nodeT)(n41,271,nodeT)(n41,272,nodeT)(n41,273,nodeT)(n41,274,nodeT)(n41,275,nodeT)(n41,283,nodeT)(n41,287,nodeT)(n41,288,nodeT)(n42,0,nodeT)(n42,251,nodeT)(n42,252,nodeT)(n42,254,nodeT)(n42,255,nodeT)(n42,258,nodeT)(n42,259,nodeT)(n42,261,nodeT)(n42,262,nodeT)(n42,263,nodeT)(n42,268,nodeT)(n42,269,nodeT)(n42,271,nodeT)(n42,272,nodeT)(n42,273,nodeT)(n42,274,nodeT)(n42,275,nodeT)(n42,283,nodeT)(n42,287,nodeT)(n42,288,nodeT)(n42,292,nodeT)(n43,0,n4)(n43,251,n4)(n43,252,n6)(n43,254,n6)(n43,255,n9)(n43,258,n11)(n43,259,n13)(n43,261,n15)(n43,262,n17)(n43,263,n19)(n43,268,n21)(n43,269,n24)(n43,271,n24)(n43,272,n28)(n43,273,n30)(n43,274,n30)(n43,275,n34)(n43,283,n34)(n43,287,n37)(n43,288,n39)(n43,292,n41)(n43,298,n44)(n44,0,nodeT)(n44,251,nodeT)(n44,252,nodeT)(n44,254,nodeT)(n44,255,nodeT)(n44,258,nodeT)(n44,259,nodeT)(n44,261,nodeT)(n44,262,nodeT)(n44,263,nodeT)(n44,268,nodeT)(n44,269,nodeT)(n44,271,nodeT)(n44,272,nodeT)(n44,273,nodeT)(n44,274,nodeT)(n44,275,nodeT)(n44,283,nodeT)(n44,287,nodeT)(n44,288,nodeT)(n44,292,nodeT)(n44,298,nodeT)(n45,0,n4)(n45,251,n4)(n45,252,n6)(n45,254,n6)(n45,255,n9)(n45,258,n11)(n45,259,n13)(n45,261,n15)(n45,262,n17)(n45,263,n19)(n45,268,n21)(n45,269,n24)(n45,271,n24)(n45,272,n28)(n45,273,n30)(n45,274,n30)(n45,275,n34)(n45,283,n34)(n45,287,n37)(n45,288,n39)(n45,292,n41)(n45,298,n44)(n45,299,n44)(n46,0,n4)(n46,251,n4)(n46,252,n6)(n46,254,n6)(n46,255,n9)(n46,258,n11)(n46,259,n13)(n46,261,n15)(n46,262,n17)(n46,263,n19)(n46,268,n21)(n46,269,n24)(n46,271,n24)(n46,272,n28)(n46,273,n30)(n46,274,n30)(n46,275,n34)(n46,283,n34)(n46,287,n37)(n46,288,n39)(n46,292,n41)(n46,298,n44)(n46,299,n44)(n46,303,n47)(n47,0,nodeT)(n47,251,nodeT)(n47,252,nodeT)(n47,254,nodeT)(n47,255,nodeT)(n47,258,nodeT)(n47,259,nodeT)(n47,261,nodeT)(n47,262,nodeT)(n47,263,nodeT)(n47,268,nodeT)(n47,269,nodeT)(n47,271,nodeT)(n47,272,nodeT)(n47,273,nodeT)(n47,274,nodeT)(n47,275,nodeT)(n47,283,nodeT)(n47,287,nodeT)(n47,288,nodeT)(n47,292,nodeT)(n47,298,nodeT)(n47,299,nodeT)(n48,0,n4)(n48,251,n4)(n48,252,n6)(n48,254,n6)(n48,255,n9)(n48,258,n11)(n48,259,n13)(n48,261,n15)(n48,262,n17)(n48,263,n19)(n48,268,n21)(n48,269,n24)(n48,271,n24)(n48,272,n28)(n48,273,n30)(n48,274,n30)(n48,275,n34)(n48,283,n34)(n48,287,n37)(n48,288,n39)(n48,292,n41)(n48,298,n44)(n48,299,n44)(n48,303,n47)(n48,307,n49)(n49,0,nodeT)(n49,251,nodeT)(n49,252,nodeT)(n49,254,nodeT)(n49,255,nodeT)(n49,258,nodeT)(n49,259,nodeT)(n49,261,nodeT)(n49,262,nodeT)(n49,263,nodeT)(n49,268,nodeT)(n49,269,nodeT)(n49,271,nodeT)(n49,272,nodeT)(n49,273,nodeT)(n49,274,nodeT)(n49,275,nodeT)(n49,283,nodeT)(n49,287,nodeT)(n49,288,nodeT)(n49,292,nodeT)(n49,298,nodeT)(n49,299,nodeT)(n49,303,nodeT)(n50,0,n4)(n50,251,n4)(n50,252,n6)(n50,254,n6)(n50,255,n9)(n50,258,n11)(n50,259,n13)(n50,261,n15)(n50,262,n17)(n50,263,n19)(n50,268,n21)(n50,269,n24)(n50,271,n24)(n50,272,n28)(n50,273,n30)(n50,274,n30)(n50,275,n34)(n50,283,n34)(n50,287,n37)(n50,288,n39)(n50,292,n41)(n50,298,n44)(n50,299,n44)(n50,303,n47)(n50,307,n49)(n50,315,n51)(n51,0,nodeT)(n51,251,nodeT)(n51,252,nodeT)(n51,254,nodeT)(n51,255,nodeT)(n51,258,nodeT)(n51,259,nodeT)(n51,261,nodeT)(n51,262,nodeT)(n51,263,nodeT)(n51,268,nodeT)(n51,269,nodeT)(n51,271,nodeT)(n51,272,nodeT)(n51,273,nodeT)(n51,274,nodeT)(n51,275,nodeT)(n51,283,nodeT)(n51,287,nodeT)(n51,288,nodeT)(n51,292,nodeT)(n51,298,nodeT)(n51,299,nodeT)(n51,303,nodeT)(n51,307,nodeT)(n52,0,n4)(n52,251,n4)(n52,252,n6)(n52,254,n6)(n52,255,n9)(n52,258,n11)(n52,259,n13)(n52,261,n15)(n52,262,n17)(n52,263,n19)(n52,268,n21)(n52,269,n24)(n52,271,n24)(n52,272,n28)(n52,273,n30)(n52,274,n30)(n52,275,n34)(n52,283,n34)(n52,287,n37)(n52,288,n39)(n52,292,n41)(n52,298,n44)(n52,299,n44)(n52,303,n47)(n52,307,n49)(n52,315,n51)(n52,320,n53)(n53,0,nodeT)(n53,251,nodeT)(n53,252,nodeT)(n53,254,nodeT)(n53,255,nodeT)(n53,258,nodeT)(n53,259,nodeT)(n53,261,nodeT)(n53,262,nodeT)(n53,263,nodeT)(n53,268,nodeT)(n53,269,nodeT)(n53,271,nodeT)(n53,272,nodeT)(n53,273,nodeT)(n53,274,nodeT)(n53,275,nodeT)(n53,283,nodeT)(n53,287,nodeT)(n53,288,nodeT)(n53,292,nodeT)(n53,298,nodeT)(n53,299,nodeT)(n53,303,nodeT)(n53,307,nodeT)(n53,315,nodeT)(n54,0,n4)(n54,251,n4)(n54,252,n6)(n54,254,n6)(n54,255,n9)(n54,258,n11)(n54,259,n13)(n54,261,n15)(n54,262,n17)(n54,263,n19)(n54,268,n21)(n54,269,n24)(n54,271,n24)(n54,272,n28)(n54,273,n30)(n54,274,n30)(n54,275,n34)(n54,283,n34)(n54,287,n37)(n54,288,n39)(n54,292,n41)(n54,298,n44)(n54,299,n44)(n54,303,n47)(n54,307,n49)(n54,315,n51)(n54,320,n53)(n54,347,n49)(n54,350,n47)(n55,0,n4)(n55,251,n4)(n55,252,n6)(n55,254,n6)(n55,255,n9)(n55,258,n11)(n55,259,n13)(n55,261,n15)(n55,262,n17)(n55,263,n19)(n55,268,n21)(n55,269,n24)(n55,271,n24)(n55,272,n28)(n55,273,n30)(n55,274,n30)(n55,275,n34)(n55,283,n34)(n55,287,n37)(n55,288,n39)(n55,292,n41)(n55,298,n44)(n55,299,n44)(n55,303,n47)(n55,307,n49)(n55,315,n51)(n55,320,n53)(n55,347,n47)(n55,350,n47)(n56,0,n4)(n56,251,n4)(n56,252,n6)(n56,254,n6)(n56,255,n9)(n56,258,n11)(n56,259,n13)(n56,261,n15)(n56,262,n17)(n56,263,n19)(n56,268,n21)(n56,269,n24)(n56,271,n24)(n56,272,n28)(n56,273,n30)(n56,274,n30)(n56,275,n34)(n56,283,n34)(n56,287,n37)(n56,288,n39)(n56,292,n41)(n56,298,n44)(n56,299,n44)(n56,303,n47)(n56,307,n49)(n56,315,n51)(n56,320,n53)(n56,347,n44)(n56,350,n42)(n56,351,n42)(n57,0,n4)(n57,251,n4)(n57,252,n6)(n57,254,n6)(n57,255,n9)(n57,258,n11)(n57,259,n13)(n57,261,n15)(n57,262,n17)(n57,263,n19)(n57,268,n21)(n57,269,n24)(n57,271,n24)(n57,272,n28)(n57,273,n30)(n57,274,n30)(n57,275,n34)(n57,283,n34)(n57,287,n37)(n57,288,n39)(n57,292,n41)(n57,298,n44)(n57,299,n44)(n57,303,n47)(n57,307,n49)(n57,315,n51)(n57,320,n53)(n57,347,n42)(n57,350,n42)(n57,351,n42)(n57,355,n41)(n58,0,n4)(n58,251,n4)(n58,252,n6)(n58,254,n6)(n58,255,n9)(n58,258,n11)(n58,259,n13)(n58,261,n15)(n58,262,n17)(n58,263,n19)(n58,268,n21)(n58,269,n24)(n58,271,n24)(n58,272,n28)(n58,273,n30)(n58,274,n30)(n58,275,n34)(n58,283,n34)(n58,287,n37)(n58,288,n39)(n58,292,n41)(n58,298,n44)(n58,299,n44)(n58,303,n47)(n58,307,n49)(n58,315,n51)(n58,320,n53)(n58,347,n42)(n58,350,n41)(n58,351,n41)(n58,355,n37)(n58,357,n34)(n59,0,n4)(n59,251,n4)(n59,252,n6)(n59,254,n6)(n59,255,n9)(n59,258,n11)(n59,259,n13)(n59,261,n15)(n59,262,n17)(n59,263,n19)(n59,268,n21)(n59,269,n24)(n59,271,n24)(n59,272,n28)(n59,273,n30)(n59,274,n30)(n59,275,n34)(n59,283,n34)(n59,287,n37)(n59,288,n39)(n59,292,n41)(n59,298,n44)(n59,299,n44)(n59,303,n47)(n59,307,n49)(n59,315,n51)(n59,320,n53)(n59,347,n41)(n59,350,n39)(n59,351,n37)(n59,355,n34)(n59,357,n34)(n59,361,n34)(n60,0,n4)(n60,251,n4)(n60,252,n6)(n60,254,n6)(n60,255,n9)(n60,258,n11)(n60,259,n13)(n60,261,n15)(n60,262,n17)(n60,263,n19)(n60,268,n21)(n60,269,n24)(n60,271,n24)(n60,272,n28)(n60,273,n30)(n60,274,n30)(n60,275,n34)(n60,283,n34)(n60,287,n37)(n60,288,n39)(n60,292,n41)(n60,298,n44)(n60,299,n44)(n60,303,n47)(n60,307,n49)(n60,315,n51)(n60,320,n51)(n60,347,n39)(n60,350,n37)(n60,351,n37)(n60,355,n34)(n60,357,n34)(n60,361,n30)(n60,363,n26)(n60,366,n22)(n61,0,n4)(n61,251,n4)(n61,252,n6)(n61,254,n6)(n61,255,n9)(n61,258,n11)(n61,259,n13)(n61,261,n15)(n61,262,n17)(n61,263,n19)(n61,268,n21)(n61,269,n24)(n61,271,n24)(n61,272,n28)(n61,273,n30)(n61,274,n30)(n61,275,n34)(n61,283,n34)(n61,287,n37)(n61,288,n39)(n61,292,n41)(n61,298,n44)(n61,299,n44)(n61,303,n47)(n61,307,n49)(n61,315,n51)(n61,320,n51)(n61,347,n37)(n61,350,n34)(n61,351,n34)(n61,355,n34)(n61,357,n30)(n61,361,n24)(n61,363,n21)(n61,366,n21)(n62,0,n4)(n62,251,n4)(n62,252,n6)(n62,254,n6)(n62,255,n9)(n62,258,n11)(n62,259,n13)(n62,261,n15)(n62,262,n17)(n62,263,n19)(n62,268,n21)(n62,269,n24)(n62,271,n24)(n62,272,n28)(n62,273,n30)(n62,274,n30)(n62,275,n34)(n62,283,n34)(n62,287,n37)(n62,288,n39)(n62,292,n41)(n62,298,n44)(n62,299,n44)(n62,303,n47)(n62,307,n49)(n62,315,n51)(n62,320,n51)(n62,347,n34)(n62,350,n34)(n62,351,n34)(n62,355,n30)(n62,357,n26)(n62,361,n21)(n62,363,n21)(n62,366,n19)(n62,370,n13)(n63,0,n4)(n63,251,n4)(n63,252,n6)(n63,254,n6)(n63,255,n9)(n63,258,n11)(n63,259,n13)(n63,261,n15)(n63,262,n17)(n63,263,n19)(n63,268,n21)(n63,269,n24)(n63,271,n24)(n63,272,n28)(n63,273,n30)(n63,274,n30)(n63,275,n34)(n63,283,n34)(n63,287,n37)(n63,288,n39)(n63,292,n41)(n63,298,n44)(n63,299,n44)(n63,303,n47)(n63,307,n44)(n63,315,n41)(n63,320,n37)(n63,347,n13)(n63,350,n11)(n63,351,n9)(n63,355,n4)(n63,357,n4)(n63,361,n4)(n63,363,n4)(n63,366,n4)(n63,370,n4)(n63,372,n4)(n64,0,n4)(n64,251,n4)(n64,252,n6)(n64,254,n6)(n64,255,n9)(n64,258,n11)(n64,259,n13)(n64,261,n15)(n64,262,n17)(n64,263,n19)(n64,268,n21)(n64,269,n24)(n64,271,n24)(n64,272,n28)(n64,273,n30)(n64,274,n30)(n64,275,n34)(n64,283,n34)(n64,287,n37)(n64,288,n39)(n64,292,n41)(n64,298,n42)(n64,299,n41)(n64,303,n39)(n64,307,n37)(n64,315,n34)(n64,320,n24)(n64,347,n4)(n64,350,n4)(n64,351,n4)(n64,355,n4)(n64,357,n4)(n64,361,n4)(n64,363,n4)(n64,366,n4)(n64,370,n4)(n64,372,n4)(n64,395,n4)(n65,0,n4)(n65,251,n4)(n65,252,n6)(n65,254,n6)(n65,255,n9)(n65,258,n11)(n65,259,n13)(n65,261,n15)(n65,262,n17)(n65,263,n19)(n65,268,n21)(n65,269,n24)(n65,271,n24)(n65,272,n28)(n65,273,n30)(n65,274,n30)(n65,275,n34)(n65,283,n34)(n65,287,n37)(n65,288,n39)(n65,292,n41)(n65,298,n41)(n65,299,n39)(n65,303,n37)(n65,307,n34)(n65,315,n26)(n65,320,n21)(n65,347,n4)(n65,350,n4)(n65,351,n4)(n65,355,n4)(n65,357,n4)(n65,361,n4)(n65,363,n4)(n65,366,n4)(n65,370,n4)(n65,372,n4)(n65,395,n4)(n65,410,n4)(n66,0,n4)(n66,251,n4)(n66,252,n6)(n66,254,n6)(n66,255,n9)(n66,258,n11)(n66,259,n13)(n66,261,n15)(n66,262,n17)(n66,263,n19)(n66,268,n21)(n66,269,n24)(n66,271,n24)(n66,272,n28)(n66,273,n30)(n66,274,n30)(n66,275,n34)(n66,283,n34)(n66,287,n37)(n66,288,n39)(n66,292,n41)(n66,298,n37)(n66,299,n34)(n66,303,n34)(n66,307,n32)(n66,315,n21)(n66,320,n17)(n66,347,n4)(n66,350,n4)(n66,351,n4)(n66,355,n4)(n66,357,n4)(n66,361,n4)(n66,363,n4)(n66,366,n4)(n66,370,n4)(n66,372,n4)(n66,395,n4)(n66,410,n4)(n66,414,n4)(n67,0,n4)(n67,251,n4)(n67,252,n6)(n67,254,n6)(n67,255,n9)(n67,258,n11)(n67,259,n13)(n67,261,n15)(n67,262,n17)(n67,263,n19)(n67,268,n21)(n67,269,n24)(n67,271,n24)(n67,272,n28)(n67,273,n30)(n67,274,n30)(n67,275,n34)(n67,283,n34)(n67,287,n37)(n67,288,n34)(n67,292,n34)(n67,298,n28)(n67,299,n26)(n67,303,n21)(n67,307,n21)(n67,315,n11)(n67,320,n4)(n67,347,n4)(n67,350,n4)(n67,351,n4)(n67,355,n4)(n67,357,n4)(n67,361,n4)(n67,363,n4)(n67,366,n4)(n67,370,n4)(n67,372,n4)(n67,395,n4)(n67,410,n4)(n67,414,n4)(n67,419,n4)(n68,0,n4)(n68,251,n4)(n68,252,n6)(n68,254,n6)(n68,255,n9)(n68,258,n11)(n68,259,n13)(n68,261,n15)(n68,262,n17)(n68,263,n19)(n68,268,n21)(n68,269,n24)(n68,271,n24)(n68,272,n28)(n68,273,n30)(n68,274,n30)(n68,275,n34)(n68,283,n34)(n68,287,n32)(n68,288,n30)(n68,292,n24)(n68,298,n21)(n68,299,n19)(n68,303,n13)(n68,307,n9)(n68,315,n4)(n68,320,n4)(n68,347,n4)(n68,350,n4)(n68,351,n4)(n68,355,n4)(n68,357,n4)(n68,361,n4)(n68,363,n4)(n68,366,n4)(n68,370,n4)(n68,372,n4)(n68,395,n4)(n68,410,n4)(n68,414,n4)(n68,419,n4)(n68,430,n4)(n69,0,n4)(n69,251,n4)(n69,252,n6)(n69,254,n6)(n69,255,n9)(n69,258,n11)(n69,259,n13)(n69,261,n15)(n69,262,n17)(n69,263,n19)(n69,268,n21)(n69,269,n24)(n69,271,n24)(n69,272,n28)(n69,273,n30)(n69,274,n30)(n69,275,n34)(n69,283,n30)(n69,287,n24)(n69,288,n22)(n69,292,n21)(n69,298,n13)(n69,299,n11)(n69,303,n6)(n69,307,n4)(n69,315,n4)(n69,320,n4)(n69,347,n4)(n69,350,n4)(n69,351,n4)(n69,355,n4)(n69,357,n4)(n69,361,n4)(n69,363,n4)(n69,366,n4)(n69,370,n4)(n69,372,n4)(n69,395,n4)(n69,410,n4)(n69,414,n4)(n69,419,n4)(n69,430,n4)(n69,439,n4)(n70,0,n4)(n70,251,n4)(n70,252,n6)(n70,254,n6)(n70,255,n9)(n70,258,n11)(n70,259,n13)(n70,261,n15)(n70,262,n17)(n70,263,n19)(n70,268,n21)(n70,269,n24)(n70,271,n24)(n70,272,n28)(n70,273,n30)(n70,274,n30)(n70,275,n34)(n70,283,n28)(n70,287,n22)(n70,288,n21)(n70,292,n21)(n70,298,n11)(n70,299,n11)(n70,303,n6)(n70,307,n4)(n70,315,n4)(n70,320,n4)(n70,347,n4)(n70,350,n4)(n70,351,n4)(n70,355,n4)(n70,357,n4)(n70,361,n4)(n70,363,n4)(n70,366,n4)(n70,370,n4)(n70,372,n4)(n70,395,n4)(n70,410,n4)(n70,414,n4)(n70,419,n4)(n70,430,n4)(n70,439,n4)(n70,444,n4)(n71,0,n4)(n71,251,n4)(n71,252,n6)(n71,254,n6)(n71,255,n9)(n71,258,n11)(n71,259,n13)(n71,261,n15)(n71,262,n17)(n71,263,n19)(n71,268,n21)(n71,269,n24)(n71,271,n24)(n71,272,n28)(n71,273,n30)(n71,274,n30)(n71,275,n34)(n71,283,n21)(n71,287,n21)(n71,288,n19)(n71,292,n13)(n71,298,n6)(n71,299,n72)(n71,303,n4)(n71,307,n4)(n71,315,n4)(n71,320,n4)(n71,347,n4)(n71,350,n4)(n71,351,n4)(n71,355,n4)(n71,357,n4)(n71,361,n4)(n71,363,n4)(n71,366,n4)(n71,370,n4)(n71,372,n4)(n71,395,n4)(n71,410,n4)(n71,414,n4)(n71,419,n4)(n71,430,n4)(n71,439,n4)(n71,444,n4)(n71,445,n4)(n72,0,nodeT)(n72,251,nodeT)(n73,0,n4)(n73,251,n4)(n73,252,n6)(n73,254,n6)(n73,255,n9)(n73,258,n11)(n73,259,n13)(n73,261,n15)(n73,262,n17)(n73,263,n19)(n73,268,n21)(n73,269,n21)(n73,271,n21)(n73,272,n19)(n73,273,n17)(n73,274,n15)(n73,275,n15)(n73,283,n72)(n73,287,n4)(n73,288,n4)(n73,292,n4)(n73,298,n4)(n73,299,n4)(n73,303,n4)(n73,307,n4)(n73,315,n4)(n73,320,n4)(n73,347,n4)(n73,350,n4)(n73,351,n4)(n73,355,n4)(n73,357,n4)(n73,361,n4)(n73,363,n4)(n73,366,n4)(n73,370,n4)(n73,372,n4)(n73,395,n4)(n73,410,n4)(n73,414,n4)(n73,419,n4)(n73,430,n4)(n73,439,n4)(n73,444,n4)(n73,445,n4)(n73,450,n4)(n74,0,n4)(n74,251,n4)(n74,252,n6)(n74,254,n6)(n74,255,n9)(n74,258,n11)(n74,259,n13)(n74,261,n15)(n74,262,n17)(n74,263,n19)(n74,268,n15)(n74,269,n15)(n74,271,n11)(n74,272,n11)(n74,273,n11)(n74,274,n9)(n74,275,n6)(n74,283,n4)(n74,287,n4)(n74,288,n4)(n74,292,n4)(n74,298,n4)(n74,299,n4)(n74,303,n4)(n74,307,n4)(n74,315,n4)(n74,320,n4)(n74,347,n4)(n74,350,n4)(n74,351,n4)(n74,355,n4)(n74,357,n4)(n74,361,n4)(n74,363,n4)(n74,366,n4)(n74,370,n4)(n74,372,n4)(n74,395,n4)(n74,410,n4)(n74,414,n4)(n74,419,n4)(n74,430,n4)(n74,439,n4)(n74,444,n4)(n74,445,n4)(n74,450,n4)(n74,466,n4)(n75,0,n4)(n75,251,n4)(n75,252,n6)(n75,254,n6)(n75,255,n9)(n75,258,n11)(n75,259,n13)(n75,261,n15)(n75,262,n17)(n75,263,n19)(n75,268,n15)(n75,269,n13)(n75,271,n11)(n75,272,n11)(n75,273,n9)(n75,274,n6)(n75,275,n6)(n75,283,n4)(n75,287,n4)(n75,288,n4)(n75,292,n4)(n75,298,n4)(n75,299,n4)(n75,303,n4)(n75,307,n4)(n75,315,n4)(n75,320,n4)(n75,347,n4)(n75,350,n4)(n75,351,n4)(n75,355,n4)(n75,357,n4)(n75,361,n4)(n75,363,n4)(n75,366,n4)(n75,370,n4)(n75,372,n4)(n75,395,n4)(n75,410,n4)(n75,414,n4)(n75,419,n4)(n75,430,n4)(n75,439,n4)(n75,444,n4)(n75,445,n4)(n75,450,n4)(n75,466,n4)(n75,472,n4)(n76,0,n4)(n76,251,n4)(n76,252,n6)(n76,254,n6)(n76,255,n9)(n76,258,n11)(n76,259,n13)(n76,261,n15)(n76,262,n17)(n76,263,n19)(n76,268,n13)(n76,269,n11)(n76,271,n11)(n76,272,n9)(n76,273,n6)(n76,274,n6)(n76,275,n72)(n76,283,n4)(n76,287,n4)(n76,288,n4)(n76,292,n4)(n76,298,n4)(n76,299,n4)(n76,303,n4)(n76,307,n4)(n76,315,n4)(n76,320,n4)(n76,347,n4)(n76,350,n4)(n76,351,n4)(n76,355,n4)(n76,357,n4)(n76,361,n4)(n76,363,n4)(n76,366,n4)(n76,370,n4)(n76,372,n4)(n76,395,n4)(n76,410,n4)(n76,414,n4)(n76,419,n4)(n76,430,n4)(n76,439,n4)(n76,444,n4)(n76,445,n4)(n76,450,n4)(n76,466,n4)(n76,472,n4)(n76,473,n4)(n77,0,n4)(n77,251,n4)(n77,252,n6)(n77,254,n72)(n77,255,n4)(n77,258,n4)(n77,259,n4)(n77,261,n4)(n77,262,n4)(n77,263,n4)(n77,268,n4)(n77,269,n4)(n77,271,n4)(n77,272,n4)(n77,273,n4)(n77,274,n4)(n77,275,n4)(n77,283,n4)(n77,287,n4)(n77,288,n4)(n77,292,n4)(n77,298,n4)(n77,299,n4)(n77,303,n4)(n77,307,n4)(n77,315,n4)(n77,320,n4)(n77,347,n4)(n77,350,n4)(n77,351,n4)(n77,355,n4)(n77,357,n4)(n77,361,n4)(n77,363,n4)(n77,366,n4)(n77,370,n4)(n77,372,n4)(n77,395,n4)(n77,410,n4)(n77,414,n4)(n77,419,n4)(n77,430,n4)(n77,439,n4)(n77,444,n4)(n77,445,n4)(n77,450,n4)(n77,466,n4)(n77,472,n4)(n77,473,n4)(n77,474,n4) </transitions>
      </mdd>
      <args> b[0][] </args>
      <args> b[1][] </args>
      <args> b[2][] </args>
      <args> b[3][] </args>
      <args> b[4][] </args>
      <args> b[5][] </args>
      <args> b[6][] </args>
      <args> b[7][] </args>
      <args> b[8][] </args>
      <args> b[9][] </args>
      <args> b[10][] </args>
      <args> b[11][] </args>
      <args> b[12][] </args>
      <args> b[13][] </args>
      <args> b[14][] </args>
      <args> b[15][] </args>
      <args> b[16][] </args>
      <args> b[17][] </args>
      <args> b[18][] </args>
      <args> b[19][] </args>
      <args> b[20][] </args>
      <args> b[21][] </args>
      <args> b[22][] </args>
      <args> b[23][] </args>
    </group>
    <cardinality>
      <list> b[][] </list>
      <values> 0 251 252 254 255 258 259 261 262 263 268 269 271 272 273 274 275 283 287 288 292 298 299 303 307 315 320 347 350 351 355 357 361 363 366 370 372 395 410 414 419 430 439 444 445 450 466 472 473 474 495 </values>
      <occurs> 12 1 3 1 1 1 1 1 1 1 1 2 1 2 2 1 2 1 1 1 1 2 1 1 1 1 1 1 2 1 1 1 1 1 3 1 1 1 1 1 1 1 1 1 1 1 1 1 1 1 1 </occurs>
    </cardinality>
    <lex class="symmetryBreaking">
      <list> b[0][] </list>
      <list> b[1][] </list>
      <list> b[2][] </list>
      <list> b[3][] </list>
      <list> b[4][] </list>
      <list> b[5][] </list>
      <list> b[6][] </list>
      <list> b[7][] </list>
      <list> b[8][] </list>
      <list> b[9][] </list>
      <list> b[10][] </list>
      <list> b[11][] </list>
      <list> b[12][] </list>
      <list> b[13][] </list>
      <list> b[14][] </list>
      <list> b[15][] </list>
      <list> b[16][] </list>
      <list> b[17][] </list>
      <list> b[18][] </list>
      <list> b[19][] </list>
      <list> b[20][] </list>
      <list> b[21][] </list>
      <list> b[22][] </list>
      <list> b[23][] </list>
      <operator> ge </operator>
    </lex>
    <count>
      <list> b[][0] </list>
      <values> 0 </values>
      <condition> (eq,x) </condition>
    </count>
  </constraints>
  <objectives>
    <maximize> x </maximize>
  </objectives>
</instance>
